(set-logic QF_BV)
(declare-fun v!27 () (_ BitVec 32))
(declare-fun t!23 () (_ BitVec 8))
(declare-fun t!22 () (_ BitVec 8))
(declare-fun t!24 () (_ BitVec 8))
(declare-fun t!25 () (_ BitVec 8))
(declare-fun t!19 () (_ BitVec 8))
(declare-fun t!18 () (_ BitVec 8))
(declare-fun t!20 () (_ BitVec 8))
(declare-fun t!21 () (_ BitVec 8))
(declare-fun t!15 () (_ BitVec 8))
(declare-fun t!14 () (_ BitVec 8))
(declare-fun t!16 () (_ BitVec 8))
(declare-fun t!17 () (_ BitVec 8))
(declare-fun t!11 () (_ BitVec 8))
(declare-fun t!10 () (_ BitVec 8))
(declare-fun t!12 () (_ BitVec 8))
(declare-fun t!13 () (_ BitVec 8))
(declare-fun t!7 () (_ BitVec 8))
(declare-fun t!6 () (_ BitVec 8))
(declare-fun t!8 () (_ BitVec 8))
(declare-fun t!9 () (_ BitVec 8))
(declare-fun t!3 () (_ BitVec 8))
(declare-fun t!2 () (_ BitVec 8))
(declare-fun t!4 () (_ BitVec 8))
(declare-fun t!5 () (_ BitVec 8))
(declare-fun t!1 () (_ BitVec 8))
(declare-fun t!0 () (_ BitVec 8))
(declare-fun t!26 () (_ BitVec 8))
(declare-fun rf!26 () (_ BitVec 8))
(declare-fun v!4 () (_ BitVec 32))
(declare-fun rf!3 () (_ BitVec 8))
(declare-fun v!8 () (_ BitVec 32))
(declare-fun v!12 () (_ BitVec 32))
(declare-fun v!16 () (_ BitVec 32))
(declare-fun v!20 () (_ BitVec 32))
(declare-fun v!24 () (_ BitVec 32))
(declare-fun rf!7 () (_ BitVec 8))
(declare-fun rf!11 () (_ BitVec 8))
(declare-fun rf!15 () (_ BitVec 8))
(declare-fun rf!19 () (_ BitVec 8))
(declare-fun rf!23 () (_ BitVec 8))
(assert (and true (bvsle (_ bv5 32) v!27)))
(assert (bvult (_ bv0 8) t!23))
(assert (bvult (_ bv0 8) t!22))
(assert (bvult (_ bv0 8) t!24))
(assert (bvult (_ bv0 8) t!25))
(assert (bvult (_ bv0 8) t!19))
(assert (bvult (_ bv0 8) t!18))
(assert (bvult (_ bv0 8) t!20))
(assert (bvult (_ bv0 8) t!21))
(assert (bvult (_ bv0 8) t!15))
(assert (bvult (_ bv0 8) t!14))
(assert (bvult (_ bv0 8) t!16))
(assert (bvult (_ bv0 8) t!17))
(assert (bvult (_ bv0 8) t!11))
(assert (bvult (_ bv0 8) t!10))
(assert (bvult (_ bv0 8) t!12))
(assert (bvult (_ bv0 8) t!13))
(assert (bvult (_ bv0 8) t!7))
(assert (bvult (_ bv0 8) t!6))
(assert (bvult (_ bv0 8) t!8))
(assert (bvult (_ bv0 8) t!9))
(assert (bvult (_ bv0 8) t!3))
(assert (bvult (_ bv0 8) t!2))
(assert (bvult (_ bv0 8) t!4))
(assert (bvult (_ bv0 8) t!5))
(assert (bvult (_ bv0 8) t!1))
(assert (bvult (_ bv0 8) t!0))
(assert (bvult (_ bv0 8) t!26))
(assert (and (and (and (and (and (and (and (and (and (and (and (and (and (and (and (and (and (and (and (and (and (and (and (and (and (and true (bvult t!22 t!23)) (bvult t!23 t!24)) (bvult t!24 t!25)) (bvult t!18 t!19)) (bvult t!19 t!20)) (bvult t!20 t!21)) (bvult t!14 t!15)) (bvult t!15 t!16)) (bvult t!16 t!17)) (bvult t!10 t!11)) (bvult t!11 t!12)) (bvult t!12 t!13)) (bvult t!6 t!7)) (bvult t!7 t!8)) (bvult t!8 t!9)) (bvult t!2 t!3)) (bvult t!3 t!4)) (bvult t!4 t!5)) (bvult t!0 t!1)) (bvult t!1 t!2)) (bvult t!2 t!6)) (bvult t!6 t!10)) (bvult t!10 t!14)) (bvult t!14 t!18)) (bvult t!18 t!22)) (bvult t!22 t!26)))
(assert (let ((_let_0 (= (_ bv1 8) rf!26))) (let ((_let_1 (and true true))) (let ((_let_2 (= (_ bv4 8) rf!26))) (let ((_let_3 (= (_ bv0 8) rf!3))) (let ((_let_4 (= (_ bv8 8) rf!3))) (let ((_let_5 (bvadd v!8 (_ bv1 32)))) (let ((_let_6 (= (_ bv12 8) rf!3))) (let ((_let_7 (bvadd v!12 (_ bv1 32)))) (let ((_let_8 (= (_ bv16 8) rf!3))) (let ((_let_9 (bvadd v!16 (_ bv1 32)))) (let ((_let_10 (= (_ bv20 8) rf!3))) (let ((_let_11 (bvadd v!20 (_ bv1 32)))) (let ((_let_12 (= (_ bv24 8) rf!3))) (let ((_let_13 (bvadd v!24 (_ bv1 32)))) (let ((_let_14 (= (_ bv0 8) rf!7))) (let ((_let_15 (= (_ bv8 8) rf!7))) (let ((_let_16 (= (_ bv12 8) rf!7))) (let ((_let_17 (= (_ bv16 8) rf!7))) (let ((_let_18 (= (_ bv20 8) rf!7))) (let ((_let_19 (= (_ bv24 8) rf!7))) (let ((_let_20 (= (_ bv0 8) rf!11))) (let ((_let_21 (= (_ bv8 8) rf!11))) (let ((_let_22 (= (_ bv12 8) rf!11))) (let ((_let_23 (= (_ bv16 8) rf!11))) (let ((_let_24 (= (_ bv20 8) rf!11))) (let ((_let_25 (= (_ bv24 8) rf!11))) (let ((_let_26 (= (_ bv0 8) rf!15))) (let ((_let_27 (= (_ bv8 8) rf!15))) (let ((_let_28 (= (_ bv12 8) rf!15))) (let ((_let_29 (= (_ bv16 8) rf!15))) (let ((_let_30 (= (_ bv20 8) rf!15))) (let ((_let_31 (= (_ bv24 8) rf!15))) (let ((_let_32 (= (_ bv0 8) rf!19))) (let ((_let_33 (= (_ bv8 8) rf!19))) (let ((_let_34 (= (_ bv12 8) rf!19))) (let ((_let_35 (= (_ bv16 8) rf!19))) (let ((_let_36 (= (_ bv20 8) rf!19))) (let ((_let_37 (= (_ bv24 8) rf!19))) (let ((_let_38 (= (_ bv0 8) rf!23))) (let ((_let_39 (= (_ bv8 8) rf!23))) (let ((_let_40 (= (_ bv12 8) rf!23))) (let ((_let_41 (= (_ bv16 8) rf!23))) (let ((_let_42 (= (_ bv20 8) rf!23))) (let ((_let_43 (= (_ bv24 8) rf!23))) (and (and (and (and (and (and (and (and (and (and (and (and (and (and (and (and (and (and (and (and (and (and (and (and (and (and (and (and (and (and (and (and (and (and (and (and (and (and (and (and (and (and (and (and (and true (=> _let_0 (and (and _let_1 (bvult t!1 t!26)) (= (_ bv0 32) v!27)))) (=> _let_2 (and (and _let_1 (bvult t!4 t!26)) (= v!4 v!27)))) (=> true (or _let_2 (or _let_0 false)))) (=> _let_3 (and (and _let_1 (bvult t!0 t!3)) (= (_ bv0 32) v!4)))) (=> _let_4 (and (and _let_1 (bvult t!8 t!3)) (= _let_5 v!4)))) (=> _let_6 (and (and _let_1 (bvult t!12 t!3)) (= _let_7 v!4)))) (=> _let_8 (and (and _let_1 (bvult t!16 t!3)) (= _let_9 v!4)))) (=> _let_10 (and (and _let_1 (bvult t!20 t!3)) (= _let_11 v!4)))) (=> _let_12 (and (and _let_1 (bvult t!24 t!3)) (= _let_13 v!4)))) (=> true (or _let_12 (or _let_10 (or _let_8 (or _let_6 (or _let_4 (or _let_3 false)))))))) (=> _let_14 (and (and _let_1 (bvult t!0 t!7)) (= (_ bv0 32) v!8)))) (=> _let_15 (and (and _let_1 (bvult t!8 t!7)) (= _let_5 v!8)))) (=> _let_16 (and (and _let_1 (bvult t!12 t!7)) (= _let_7 v!8)))) (=> _let_17 (and (and _let_1 (bvult t!16 t!7)) (= _let_9 v!8)))) (=> _let_18 (and (and _let_1 (bvult t!20 t!7)) (= _let_11 v!8)))) (=> _let_19 (and (and _let_1 (bvult t!24 t!7)) (= _let_13 v!8)))) (=> true (or _let_19 (or _let_18 (or _let_17 (or _let_16 (or _let_15 (or _let_14 false)))))))) (=> _let_20 (and (and _let_1 (bvult t!0 t!11)) (= (_ bv0 32) v!12)))) (=> _let_21 (and (and _let_1 (bvult t!8 t!11)) (= _let_5 v!12)))) (=> _let_22 (and (and _let_1 (bvult t!12 t!11)) (= _let_7 v!12)))) (=> _let_23 (and (and _let_1 (bvult t!16 t!11)) (= _let_9 v!12)))) (=> _let_24 (and (and _let_1 (bvult t!20 t!11)) (= _let_11 v!12)))) (=> _let_25 (and (and _let_1 (bvult t!24 t!11)) (= _let_13 v!12)))) (=> true (or _let_25 (or _let_24 (or _let_23 (or _let_22 (or _let_21 (or _let_20 false)))))))) (=> _let_26 (and (and _let_1 (bvult t!0 t!15)) (= (_ bv0 32) v!16)))) (=> _let_27 (and (and _let_1 (bvult t!8 t!15)) (= _let_5 v!16)))) (=> _let_28 (and (and _let_1 (bvult t!12 t!15)) (= _let_7 v!16)))) (=> _let_29 (and (and _let_1 (bvult t!16 t!15)) (= _let_9 v!16)))) (=> _let_30 (and (and _let_1 (bvult t!20 t!15)) (= _let_11 v!16)))) (=> _let_31 (and (and _let_1 (bvult t!24 t!15)) (= _let_13 v!16)))) (=> true (or _let_31 (or _let_30 (or _let_29 (or _let_28 (or _let_27 (or _let_26 false)))))))) (=> _let_32 (and (and _let_1 (bvult t!0 t!19)) (= (_ bv0 32) v!20)))) (=> _let_33 (and (and _let_1 (bvult t!8 t!19)) (= _let_5 v!20)))) (=> _let_34 (and (and _let_1 (bvult t!12 t!19)) (= _let_7 v!20)))) (=> _let_35 (and (and _let_1 (bvult t!16 t!19)) (= _let_9 v!20)))) (=> _let_36 (and (and _let_1 (bvult t!20 t!19)) (= _let_11 v!20)))) (=> _let_37 (and (and _let_1 (bvult t!24 t!19)) (= _let_13 v!20)))) (=> true (or _let_37 (or _let_36 (or _let_35 (or _let_34 (or _let_33 (or _let_32 false)))))))) (=> _let_38 (and (and _let_1 (bvult t!0 t!23)) (= (_ bv0 32) v!24)))) (=> _let_39 (and (and _let_1 (bvult t!8 t!23)) (= _let_5 v!24)))) (=> _let_40 (and (and _let_1 (bvult t!12 t!23)) (= _let_7 v!24)))) (=> _let_41 (and (and _let_1 (bvult t!16 t!23)) (= _let_9 v!24)))) (=> _let_42 (and (and _let_1 (bvult t!20 t!23)) (= _let_11 v!24)))) (=> _let_43 (and (and _let_1 (bvult t!24 t!23)) (= _let_13 v!24)))) (=> true (or _let_43 (or _let_42 (or _let_41 (or _let_40 (or _let_39 (or _let_38 false)))))))))))))))))))))))))))))))))))))))))))))))))))))
(assert (let ((_let_0 (bvult t!23 t!24))) (let ((_let_1 (bvult t!19 t!20))) (let ((_let_2 (bvult t!15 t!16))) (let ((_let_3 (bvult t!11 t!12))) (let ((_let_4 (bvult t!7 t!8))) (let ((_let_5 (and (= (_ bv0 8) rf!3) true))) (let ((_let_6 (bvult t!0 t!8))) (let ((_let_7 (bvult t!3 t!8))) (let ((_let_8 (bvult t!0 t!12))) (let ((_let_9 (bvult t!3 t!12))) (let ((_let_10 (bvult t!0 t!16))) (let ((_let_11 (bvult t!3 t!16))) (let ((_let_12 (bvult t!0 t!20))) (let ((_let_13 (bvult t!3 t!20))) (let ((_let_14 (bvult t!0 t!24))) (let ((_let_15 (bvult t!3 t!24))) (let ((_let_16 (and (= (_ bv8 8) rf!3) true))) (let ((_let_17 (bvult t!8 t!0))) (let ((_let_18 (bvult t!3 t!0))) (let ((_let_19 (bvult t!8 t!12))) (let ((_let_20 (bvult t!8 t!16))) (let ((_let_21 (bvult t!8 t!20))) (let ((_let_22 (bvult t!8 t!24))) (let ((_let_23 (and (= (_ bv12 8) rf!3) true))) (let ((_let_24 (bvult t!12 t!0))) (let ((_let_25 (bvult t!12 t!8))) (let ((_let_26 (bvult t!12 t!16))) (let ((_let_27 (bvult t!12 t!20))) (let ((_let_28 (bvult t!12 t!24))) (let ((_let_29 (and (= (_ bv16 8) rf!3) true))) (let ((_let_30 (bvult t!16 t!0))) (let ((_let_31 (bvult t!16 t!8))) (let ((_let_32 (bvult t!16 t!12))) (let ((_let_33 (bvult t!16 t!20))) (let ((_let_34 (bvult t!16 t!24))) (let ((_let_35 (and (= (_ bv20 8) rf!3) true))) (let ((_let_36 (bvult t!20 t!0))) (let ((_let_37 (bvult t!20 t!8))) (let ((_let_38 (bvult t!20 t!12))) (let ((_let_39 (bvult t!20 t!16))) (let ((_let_40 (bvult t!20 t!24))) (let ((_let_41 (and (= (_ bv24 8) rf!3) true))) (let ((_let_42 (bvult t!24 t!0))) (let ((_let_43 (bvult t!24 t!8))) (let ((_let_44 (bvult t!24 t!12))) (let ((_let_45 (bvult t!24 t!16))) (let ((_let_46 (bvult t!24 t!20))) (let ((_let_47 (and (= (_ bv0 8) rf!7) true))) (let ((_let_48 (bvult t!7 t!12))) (let ((_let_49 (bvult t!7 t!16))) (let ((_let_50 (bvult t!7 t!20))) (let ((_let_51 (bvult t!7 t!24))) (let ((_let_52 (and (= (_ bv8 8) rf!7) true))) (let ((_let_53 (bvult t!7 t!0))) (let ((_let_54 (and (= (_ bv12 8) rf!7) true))) (let ((_let_55 (and (= (_ bv16 8) rf!7) true))) (let ((_let_56 (and (= (_ bv20 8) rf!7) true))) (let ((_let_57 (and (= (_ bv24 8) rf!7) true))) (let ((_let_58 (and (= (_ bv0 8) rf!11) true))) (let ((_let_59 (bvult t!11 t!8))) (let ((_let_60 (bvult t!11 t!16))) (let ((_let_61 (bvult t!11 t!20))) (let ((_let_62 (bvult t!11 t!24))) (let ((_let_63 (and (= (_ bv8 8) rf!11) true))) (let ((_let_64 (bvult t!11 t!0))) (let ((_let_65 (and (= (_ bv12 8) rf!11) true))) (let ((_let_66 (and (= (_ bv16 8) rf!11) true))) (let ((_let_67 (and (= (_ bv20 8) rf!11) true))) (let ((_let_68 (and (= (_ bv24 8) rf!11) true))) (let ((_let_69 (and (= (_ bv0 8) rf!15) true))) (let ((_let_70 (bvult t!15 t!8))) (let ((_let_71 (bvult t!15 t!12))) (let ((_let_72 (bvult t!15 t!20))) (let ((_let_73 (bvult t!15 t!24))) (let ((_let_74 (and (= (_ bv8 8) rf!15) true))) (let ((_let_75 (bvult t!15 t!0))) (let ((_let_76 (and (= (_ bv12 8) rf!15) true))) (let ((_let_77 (and (= (_ bv16 8) rf!15) true))) (let ((_let_78 (and (= (_ bv20 8) rf!15) true))) (let ((_let_79 (and (= (_ bv24 8) rf!15) true))) (let ((_let_80 (and (= (_ bv0 8) rf!19) true))) (let ((_let_81 (bvult t!19 t!8))) (let ((_let_82 (bvult t!19 t!12))) (let ((_let_83 (bvult t!19 t!16))) (let ((_let_84 (bvult t!19 t!24))) (let ((_let_85 (and (= (_ bv8 8) rf!19) true))) (let ((_let_86 (bvult t!19 t!0))) (let ((_let_87 (and (= (_ bv12 8) rf!19) true))) (let ((_let_88 (and (= (_ bv16 8) rf!19) true))) (let ((_let_89 (and (= (_ bv20 8) rf!19) true))) (let ((_let_90 (and (= (_ bv24 8) rf!19) true))) (let ((_let_91 (and (= (_ bv0 8) rf!23) true))) (let ((_let_92 (bvult t!23 t!8))) (let ((_let_93 (bvult t!23 t!12))) (let ((_let_94 (bvult t!23 t!16))) (let ((_let_95 (bvult t!23 t!20))) (let ((_let_96 (and (= (_ bv8 8) rf!23) true))) (let ((_let_97 (bvult t!23 t!0))) (let ((_let_98 (and (= (_ bv12 8) rf!23) true))) (let ((_let_99 (and (= (_ bv16 8) rf!23) true))) (let ((_let_100 (and (= (_ bv20 8) rf!23) true))) (let ((_let_101 (and (= (_ bv24 8) rf!23) true))) (and (and (and (and (and (and (and (and (and (and (and (and (and (and (and (and (and (and (and (and (and (and (and (and (and (and (and (and (and (and (and (and (and (and (and (and (and (and (and (and (and (and (and (and (and (and (and (and (and (and (and (and (and (and (and (and (and (and (and (and (and (and (and (and (and (and (and (and (and (and (and (and (and (and (and (and (and (and (and (and (and (and (and (and (and (and (and (and (and (and (and (and (and (and (and (and (and (and (and (and (and (and (and (and (and (and (and (and (and (and (and (and (and (and (and (and (and (and (and (and (and (and (and (and (and (and (and (and (and (and (and (and (and (and (and (and (and (and (and (and (and (and (and (and (and (and (and (and (and (and (and (and (and (and (and (and (and (and (and (and (and (and (and (and (and (and (and (and (and (and (and (and (and (and (and (and (and (and (and (and (and (and true (=> (and (and (= (_ bv1 8) rf!26) true) (bvult t!1 t!4)) (bvult t!26 t!4))) (=> (and (and (= (_ bv4 8) rf!26) true) (bvult t!4 t!1)) (bvult t!26 t!1))) (=> (and _let_5 _let_6) _let_7)) (=> (and _let_5 _let_8) _let_9)) (=> (and _let_5 _let_10) _let_11)) (=> (and _let_5 _let_12) _let_13)) (=> (and _let_5 _let_14) _let_15)) (=> (and _let_16 _let_17) _let_18)) (=> (and _let_16 _let_19) _let_9)) (=> (and _let_16 _let_20) _let_11)) (=> (and _let_16 _let_21) _let_13)) (=> (and _let_16 _let_22) _let_15)) (=> (and _let_23 _let_24) _let_18)) (=> (and _let_23 _let_25) _let_7)) (=> (and _let_23 _let_26) _let_11)) (=> (and _let_23 _let_27) _let_13)) (=> (and _let_23 _let_28) _let_15)) (=> (and _let_29 _let_30) _let_18)) (=> (and _let_29 _let_31) _let_7)) (=> (and _let_29 _let_32) _let_9)) (=> (and _let_29 _let_33) _let_13)) (=> (and _let_29 _let_34) _let_15)) (=> (and _let_35 _let_36) _let_18)) (=> (and _let_35 _let_37) _let_7)) (=> (and _let_35 _let_38) _let_9)) (=> (and _let_35 _let_39) _let_11)) (=> (and _let_35 _let_40) _let_15)) (=> (and _let_41 _let_42) _let_18)) (=> (and _let_41 _let_43) _let_7)) (=> (and _let_41 _let_44) _let_9)) (=> (and _let_41 _let_45) _let_11)) (=> (and _let_41 _let_46) _let_13)) (=> (and _let_47 _let_6) _let_4)) (=> (and _let_47 _let_8) _let_48)) (=> (and _let_47 _let_10) _let_49)) (=> (and _let_47 _let_12) _let_50)) (=> (and _let_47 _let_14) _let_51)) (=> (and _let_52 _let_17) _let_53)) (=> (and _let_52 _let_19) _let_48)) (=> (and _let_52 _let_20) _let_49)) (=> (and _let_52 _let_21) _let_50)) (=> (and _let_52 _let_22) _let_51)) (=> (and _let_54 _let_24) _let_53)) (=> (and _let_54 _let_25) _let_4)) (=> (and _let_54 _let_26) _let_49)) (=> (and _let_54 _let_27) _let_50)) (=> (and _let_54 _let_28) _let_51)) (=> (and _let_55 _let_30) _let_53)) (=> (and _let_55 _let_31) _let_4)) (=> (and _let_55 _let_32) _let_48)) (=> (and _let_55 _let_33) _let_50)) (=> (and _let_55 _let_34) _let_51)) (=> (and _let_56 _let_36) _let_53)) (=> (and _let_56 _let_37) _let_4)) (=> (and _let_56 _let_38) _let_48)) (=> (and _let_56 _let_39) _let_49)) (=> (and _let_56 _let_40) _let_51)) (=> (and _let_57 _let_42) _let_53)) (=> (and _let_57 _let_43) _let_4)) (=> (and _let_57 _let_44) _let_48)) (=> (and _let_57 _let_45) _let_49)) (=> (and _let_57 _let_46) _let_50)) (=> (and _let_58 _let_6) _let_59)) (=> (and _let_58 _let_8) _let_3)) (=> (and _let_58 _let_10) _let_60)) (=> (and _let_58 _let_12) _let_61)) (=> (and _let_58 _let_14) _let_62)) (=> (and _let_63 _let_17) _let_64)) (=> (and _let_63 _let_19) _let_3)) (=> (and _let_63 _let_20) _let_60)) (=> (and _let_63 _let_21) _let_61)) (=> (and _let_63 _let_22) _let_62)) (=> (and _let_65 _let_24) _let_64)) (=> (and _let_65 _let_25) _let_59)) (=> (and _let_65 _let_26) _let_60)) (=> (and _let_65 _let_27) _let_61)) (=> (and _let_65 _let_28) _let_62)) (=> (and _let_66 _let_30) _let_64)) (=> (and _let_66 _let_31) _let_59)) (=> (and _let_66 _let_32) _let_3)) (=> (and _let_66 _let_33) _let_61)) (=> (and _let_66 _let_34) _let_62)) (=> (and _let_67 _let_36) _let_64)) (=> (and _let_67 _let_37) _let_59)) (=> (and _let_67 _let_38) _let_3)) (=> (and _let_67 _let_39) _let_60)) (=> (and _let_67 _let_40) _let_62)) (=> (and _let_68 _let_42) _let_64)) (=> (and _let_68 _let_43) _let_59)) (=> (and _let_68 _let_44) _let_3)) (=> (and _let_68 _let_45) _let_60)) (=> (and _let_68 _let_46) _let_61)) (=> (and _let_69 _let_6) _let_70)) (=> (and _let_69 _let_8) _let_71)) (=> (and _let_69 _let_10) _let_2)) (=> (and _let_69 _let_12) _let_72)) (=> (and _let_69 _let_14) _let_73)) (=> (and _let_74 _let_17) _let_75)) (=> (and _let_74 _let_19) _let_71)) (=> (and _let_74 _let_20) _let_2)) (=> (and _let_74 _let_21) _let_72)) (=> (and _let_74 _let_22) _let_73)) (=> (and _let_76 _let_24) _let_75)) (=> (and _let_76 _let_25) _let_70)) (=> (and _let_76 _let_26) _let_2)) (=> (and _let_76 _let_27) _let_72)) (=> (and _let_76 _let_28) _let_73)) (=> (and _let_77 _let_30) _let_75)) (=> (and _let_77 _let_31) _let_70)) (=> (and _let_77 _let_32) _let_71)) (=> (and _let_77 _let_33) _let_72)) (=> (and _let_77 _let_34) _let_73)) (=> (and _let_78 _let_36) _let_75)) (=> (and _let_78 _let_37) _let_70)) (=> (and _let_78 _let_38) _let_71)) (=> (and _let_78 _let_39) _let_2)) (=> (and _let_78 _let_40) _let_73)) (=> (and _let_79 _let_42) _let_75)) (=> (and _let_79 _let_43) _let_70)) (=> (and _let_79 _let_44) _let_71)) (=> (and _let_79 _let_45) _let_2)) (=> (and _let_79 _let_46) _let_72)) (=> (and _let_80 _let_6) _let_81)) (=> (and _let_80 _let_8) _let_82)) (=> (and _let_80 _let_10) _let_83)) (=> (and _let_80 _let_12) _let_1)) (=> (and _let_80 _let_14) _let_84)) (=> (and _let_85 _let_17) _let_86)) (=> (and _let_85 _let_19) _let_82)) (=> (and _let_85 _let_20) _let_83)) (=> (and _let_85 _let_21) _let_1)) (=> (and _let_85 _let_22) _let_84)) (=> (and _let_87 _let_24) _let_86)) (=> (and _let_87 _let_25) _let_81)) (=> (and _let_87 _let_26) _let_83)) (=> (and _let_87 _let_27) _let_1)) (=> (and _let_87 _let_28) _let_84)) (=> (and _let_88 _let_30) _let_86)) (=> (and _let_88 _let_31) _let_81)) (=> (and _let_88 _let_32) _let_82)) (=> (and _let_88 _let_33) _let_1)) (=> (and _let_88 _let_34) _let_84)) (=> (and _let_89 _let_36) _let_86)) (=> (and _let_89 _let_37) _let_81)) (=> (and _let_89 _let_38) _let_82)) (=> (and _let_89 _let_39) _let_83)) (=> (and _let_89 _let_40) _let_84)) (=> (and _let_90 _let_42) _let_86)) (=> (and _let_90 _let_43) _let_81)) (=> (and _let_90 _let_44) _let_82)) (=> (and _let_90 _let_45) _let_83)) (=> (and _let_90 _let_46) _let_1)) (=> (and _let_91 _let_6) _let_92)) (=> (and _let_91 _let_8) _let_93)) (=> (and _let_91 _let_10) _let_94)) (=> (and _let_91 _let_12) _let_95)) (=> (and _let_91 _let_14) _let_0)) (=> (and _let_96 _let_17) _let_97)) (=> (and _let_96 _let_19) _let_93)) (=> (and _let_96 _let_20) _let_94)) (=> (and _let_96 _let_21) _let_95)) (=> (and _let_96 _let_22) _let_0)) (=> (and _let_98 _let_24) _let_97)) (=> (and _let_98 _let_25) _let_92)) (=> (and _let_98 _let_26) _let_94)) (=> (and _let_98 _let_27) _let_95)) (=> (and _let_98 _let_28) _let_0)) (=> (and _let_99 _let_30) _let_97)) (=> (and _let_99 _let_31) _let_92)) (=> (and _let_99 _let_32) _let_93)) (=> (and _let_99 _let_33) _let_95)) (=> (and _let_99 _let_34) _let_0)) (=> (and _let_100 _let_36) _let_97)) (=> (and _let_100 _let_37) _let_92)) (=> (and _let_100 _let_38) _let_93)) (=> (and _let_100 _let_39) _let_94)) (=> (and _let_100 _let_40) _let_0)) (=> (and _let_101 _let_42) _let_97)) (=> (and _let_101 _let_43) _let_92)) (=> (and _let_101 _let_44) _let_93)) (=> (and _let_101 _let_45) _let_94)) (=> (and _let_101 _let_46) _let_95)))))))))))))))))))))))))))))))))))))))))))))))))))))))))))))))))))))))))))))))))))))))))))))))))))))))))
(assert (and (and true (distinct t!1 t!4)) (distinct t!0 t!8 t!12 t!16 t!20 t!24)))
(check-sat)
